job_count = 22 ;
duration = [|17, 10, 4|18, 7, 5|4, 4, 9|6, 12, 3|21, 14, 4|15, 12, 4|25, 10, 8|16, 16, 3|29, 19, 3|20, 12, 5|15, 3, 1|26, 6, 5|6, 2, 3|15, 2, 8|25, 5, 4|21, 13, 1|23, 6, 8|3, 11, 9|18, 18, 9|12, 12, 3|3, 8, 5|23, 19, 6|] ;
machine_count = 3 ;
cost = [|12, 20, 53|17, 34, 30|17, 34, 53|17, 29, 55|10, 20, 50|14, 36, 33|15, 22, 34|12, 39, 38|12, 26, 58|10, 23, 33|13, 39, 33|11, 39, 33|11, 30, 30|10, 28, 56|13, 22, 58|13, 39, 37|14, 24, 55|19, 36, 34|19, 29, 34|19, 38, 56|15, 30, 45|15, 38, 57|] ;
deadline = [49, 49, 49, 49, 49, 49, 49, 49, 49, 49, 49, 49, 49, 49, 49, 49, 49, 49, 49, 49, 49, 49] ;
release = [0, 0, 0, 0, 0, 0, 0, 0, 0, 0, 0, 0, 0, 0, 0, 0, 0, 0, 0, 0, 0, 0] ;
resource = [|8, 8, 8|7, 7, 7|7, 7, 7|6, 6, 6|7, 7, 7|7, 7, 7|9, 9, 9|4, 4, 4|6, 6, 6|9, 9, 9|7, 7, 7|6, 6, 6|4, 4, 4|3, 3, 3|6, 6, 6|4, 4, 4|8, 8, 8|6, 6, 6|7, 7, 7|3, 3, 3|5, 5, 5|2, 2, 2|] ;
capacities = [10, 10, 10] ;
